words_hard_train/4552.qaiger
aag 72 16 0 1 56
2
4
8
12
16
20
24
28
50
56
62
68
90
104
118
128
144
6 2 4
10 6 8
14 11 13
18 14 17
22 18 21
26 22 24
30 26 29
32 11 12
34 33 3
36 14 16
38 34 37
40 18 20
42 38 41
44 22 28
46 42 45
48 31 47
52 32 51
54 53 35
58 56 9
60 57 8
64 61 62
66 59 65
70 69 2
72 71 11
74 66 73
76 10 69
78 75 77
80 33 50
82 79 81
84 54 83
86 36 2
88 87 39
92 89 91
94 84 93
96 88 90
98 95 97
100 39 40
102 101 43
106 103 105
108 99 107
110 102 104
112 109 111
114 39 44
116 115 47
120 117 119
122 113 121
124 116 118
126 123 125
130 127 129
132 48 131
134 30 46
136 130 134
138 133 137
140 126 135
142 140 128
144 138 143
i0 1 x2[0]
i1 1 x2[2]
i2 1 x2[1]
i3 1 x2[3]
i4 1 x2[4]
i5 1 x2[5]
i6 1 x2[7]
i7 1 x2[6]
i8 2 y1[4]
i9 2 y1[7]
i10 2 y1[6]
i11 2 y1[5]
i12 2 y1[3]
i13 2 y1[2]
i14 2 y1[1]
i15 2 y1[0]
o0 bv[0]
c
simplified
  <=
    and
      1 x2
      subtract
        6
        1 x2
    reverse
      2 y1
