words_hard_train/4552.qaiger.qdimacs
p cnf 72 169
a 1 2 4 6 8 10 12 14 0
e 3 5 7 9 11 13 15 16 17 18 19 20 21 22 23 24 25 26 27 28 29 30 31 32 33 34 35 36 37 38 39 40 41 42 43 44 45 46 47 48 49 50 51 52 53 54 55 56 57 58 59 60 61 62 63 64 65 66 67 68 69 70 71 72 0
-1 -2 3 0
1 -3 0
2 -3 0
-3 -4 5 0
3 -5 0
4 -5 0
5 6 7 0
-5 -7 0
-6 -7 0
-7 8 9 0
7 -9 0
-8 -9 0
-9 10 11 0
9 -11 0
-10 -11 0
-11 -12 13 0
11 -13 0
12 -13 0
-13 14 15 0
13 -15 0
-14 -15 0
5 -6 16 0
-5 -16 0
6 -16 0
16 1 17 0
-16 -17 0
-1 -17 0
-7 -8 18 0
7 -18 0
8 -18 0
-17 18 19 0
17 -19 0
-18 -19 0
-9 -10 20 0
9 -20 0
10 -20 0
-19 20 21 0
19 -21 0
-20 -21 0
-11 -14 22 0
11 -22 0
14 -22 0
-21 22 23 0
21 -23 0
-22 -23 0
15 23 24 0
-15 -24 0
-23 -24 0
-16 25 26 0
16 -26 0
-25 -26 0
26 17 27 0
-26 -27 0
-17 -27 0
-28 4 29 0
28 -29 0
-4 -29 0
28 -4 30 0
-28 -30 0
4 -30 0
30 -31 32 0
-30 -32 0
31 -32 0
29 32 33 0
-29 -33 0
-32 -33 0
34 -1 35 0
-34 -35 0
1 -35 0
35 5 36 0
-35 -36 0
-5 -36 0
-33 36 37 0
33 -37 0
-36 -37 0
-5 34 38 0
5 -38 0
-34 -38 0
37 38 39 0
-37 -39 0
-38 -39 0
16 -25 40 0
-16 -40 0
25 -40 0
39 40 41 0
-39 -41 0
-40 -41 0
-27 41 42 0
27 -42 0
-41 -42 0
-18 -1 43 0
18 -43 0
1 -43 0
43 19 44 0
-43 -44 0
-19 -44 0
44 45 46 0
-44 -46 0
-45 -46 0
-42 46 47 0
42 -47 0
-46 -47 0
-44 -45 48 0
44 -48 0
45 -48 0
47 48 49 0
-47 -49 0
-48 -49 0
19 -20 50 0
-19 -50 0
20 -50 0
50 21 51 0
-50 -51 0
-21 -51 0
51 52 53 0
-51 -53 0
-52 -53 0
49 53 54 0
-49 -54 0
-53 -54 0
-51 -52 55 0
51 -55 0
52 -55 0
54 55 56 0
-54 -56 0
-55 -56 0
19 -22 57 0
-19 -57 0
22 -57 0
57 23 58 0
-57 -58 0
-23 -58 0
58 59 60 0
-58 -60 0
-59 -60 0
56 60 61 0
-56 -61 0
-60 -61 0
-58 -59 62 0
58 -62 0
59 -62 0
61 62 63 0
-61 -63 0
-62 -63 0
63 64 65 0
-63 -65 0
-64 -65 0
-24 65 66 0
24 -66 0
-65 -66 0
-15 -23 67 0
15 -67 0
23 -67 0
-65 -67 68 0
65 -68 0
67 -68 0
66 68 69 0
-66 -69 0
-68 -69 0
-63 67 70 0
63 -70 0
-67 -70 0
-70 -64 71 0
70 -71 0
64 -71 0
-69 71 72 0
69 -72 0
-71 -72 0
72 0
